2
100 2
65
1 1 1
2 1 1
4 1 1
6 1 1
8 1 1
10 1 1
11 1 1
12 1 1
13 1 2
14 1 1
16 1 2
17 1 1
18 1 1
20 1 2
22 1 1
24 1 2
26 1 1
27 1 1
28 1 3
29 1 2
30 1 1
31 1 1
32 1 2
34 1 1
35 1 1
36 1 1
37 1 1
38 1 1
40 1 1
42 1 2
43 1 2
44 1 2
46 1 1
48 1 1
49 1 1
51 1 1
52 1 2
53 1 2
55 1 1
56 1 4
61 1 2
62 1 2
63 1 2
64 1 2
69 1 1
70 1 1
71 1 2
74 1 2
75 1 3
77 1 2
78 1 1
79 1 3
80 1 1
81 1 1
83 1 1
84 1 2
85 1 1
86 1 2
88 1 1
91 1 3
92 1 1
97 1 5
98 1 1
99 1 1
100 1 1
